69 3633
66 8700
30 1952
69 6584
98 5763
52 2047
30 5068
90 2703
91 8746
79 9885
96 8947
57 4071
99 5799
18 6397
92 7295
37 9751
48 6593
77 9459
10 4740
98 4428
63 3234
36 6146
44 1829
93 7838
46 3579
30 9299
16 2134
93 4278
30 5710
98 9439
93 7147
10 9506
92 7920
79 6976
98 8836
50 6742
70 4870
38 9289
56 4223
82 5179
81 2232
48 5102
14 9560
29 5791
44 3826
13 9035
53 8440
40 8087
19 7940
75 1595
64 3327
45 2064
94 8505
84 7223
13 7028
55 1745
20 3870
97 5740
36 4208
87 8126
30 7361
69 2487
54 3923
68 2438
13 4529
100 6571
74 2706
59 1688
28 6130
28 3100
40 2341
58 9173
97 6413
18 2264
20 1537
26 5964
38 4765
65 3958
33 9528
33 4425
